0 0 0 0
0 1 0 0
0 2 0 0
0 3 0 0
0 4 0 8
0 5 0 10
0 6 0 13
0 7 0 10
0 8 0 13
0 9 0 56
0 10 0 10
0 11 0 38
0 12 0 20
0 13 0 15
0 14 0 30
0 15 0 30
0 16 0 13
0 17 0 35
0 18 0 24
0 19 0 22
0 20 0 61
0 21 0 31
0 22 0 33
0 23 0 48
0 24 0 19
0 25 0 8
0 26 0 24
0 27 0 30
0 28 0 15
0 29 0 19
0 30 0 32
0 31 0 13
0 32 0 48
0 33 0 55
0 34 0 40
0 35 0 41
0 36 0 58
0 37 0 23
0 38 0 18
0 39 0 46
0 40 0 32
0 41 0 27
0 42 0 46
0 43 0 57
0 44 0 56
0 45 0 57
0 46 0 39
0 47 0 68
0 48 0 20
0 49 0 63
0 50 0 78
0 51 0 1
0 52 0 52
0 53 0 70
0 54 0 44
0 55 0 41
0 56 0 67
0 57 0 64
0 58 0 64
0 59 0 82
0 60 0 73
0 61 0 54
0 62 0 87
0 63 0 49
0 64 0 84
0 65 0 50
0 66 0 63
0 67 0 32
0 68 0 77
0 69 0 73
0 70 0 80
0 71 0 64
0 72 0 70
0 73 0 85
0 74 0 73
0 75 0 64
0 76 0 96
0 77 0 94
0 78 0 107
0 79 0 98
0 80 0 91
0 81 0 97
0 82 0 68
0 83 0 72
0 84 0 79
0 85 0 91
0 86 0 98
0 87 0 72
0 88 0 99
0 89 0 98
0 90 0 112
0 91 0 89
0 92 0 106
0 93 0 83
0 94 0 103
0 95 0 117
0 96 0 80
0 97 0 86
0 98 0 111
0 99 0 101
0 100 0 103
0 101 0 90
0 102 0 111
0 103 0 116
0 104 0 121
0 105 0 111
0 106 0 87
0 107 0 106
0 108 0 99
0 109 0 116
0 110 0 77
0 111 0 115
0 112 0 94
0 113 0 83
0 114 0 107
0 115 0 104
0 116 0 117
0 117 0 121
0 118 0 118
0 119 0 123
0 120 0 125
0 121 0 127
